; SWAP1 SWAP2 SWAP1 DUP2 => DUP3 SWAP2 SWAP3
(set-option :produce-proofs true)
; 
(set-info :status unknown)
(declare-fun storage_t ((_ BitVec 256) (_ BitVec 256) (_ BitVec 256) Int (_ BitVec 256)) (_ BitVec 256))
(declare-fun storage_s ((_ BitVec 256) (_ BitVec 256) (_ BitVec 256) Int (_ BitVec 256)) (_ BitVec 256))
(declare-fun exc_halt_t (Int) Bool)
(declare-fun exc_halt_s (Int) Bool)
(declare-fun stack_t ((_ BitVec 256) (_ BitVec 256) (_ BitVec 256) Int (_ BitVec 6)) (_ BitVec 256))
(declare-fun stack_s ((_ BitVec 256) (_ BitVec 256) (_ BitVec 256) Int (_ BitVec 6)) (_ BitVec 256))
(declare-fun sc_t (Int) (_ BitVec 6))
(declare-fun sc_s (Int) (_ BitVec 6))
(declare-fun used_gas_t ((_ BitVec 256) (_ BitVec 256) (_ BitVec 256) Int) Int)
(declare-fun used_gas_s ((_ BitVec 256) (_ BitVec 256) (_ BitVec 256) Int) Int)
(assert
 (exists ((x_0 (_ BitVec 256)) (x_1 (_ BitVec 256)) (x_2 (_ BitVec 256)) )(let (($x8855 (forall ((w (_ BitVec 256)) )(let ((?x11574 (storage_t x_0 x_1 x_2 3 w)))
 (let ((?x3881 (storage_s x_0 x_1 x_2 4 w)))
 (= ?x3881 ?x11574))))
 ))
 (let (($x3614 (exc_halt_t 3)))
 (let (($x7172 (exc_halt_s 4)))
 (let (($x10470 (= $x7172 $x3614)))
 (let (($x4952 (forall ((n (_ BitVec 6)) )(let ((?x7074 (stack_t x_0 x_1 x_2 3 n)))
 (let ((?x1159 (stack_s x_0 x_1 x_2 4 n)))
 (let (($x1441 (= ?x1159 ?x7074)))
 (let ((?x11304 (sc_t 3)))
 (let (($x484 (bvsle ?x11304 n)))
 (or $x484 $x1441)))))))
 ))
 (let ((?x11304 (sc_t 3)))
 (let ((?x4305 (sc_s 4)))
 (let (($x9234 (= ?x4305 ?x11304)))
 (let ((?x9715 (used_gas_t x_0 x_1 x_2 0)))
 (let ((?x6693 (used_gas_s x_0 x_1 x_2 0)))
 (let (($x9266 (= ?x6693 ?x9715)))
 (let (($x192 (forall ((w (_ BitVec 256)) )(let ((?x1976 (storage_t x_0 x_1 x_2 0 w)))
 (let ((?x2672 (storage_s x_0 x_1 x_2 0 w)))
 (= ?x2672 ?x1976))))
 ))
 (let (($x56 (exc_halt_t 0)))
 (let (($x57 (exc_halt_s 0)))
 (let (($x58 (= $x57 $x56)))
 (let (($x80 (forall ((n (_ BitVec 6)) )(let ((?x63 (sc_t 0)))
 (let (($x7673 (bvsle ?x63 n)))
 (let ((?x8040 (stack_t x_0 x_1 x_2 0 n)))
 (let ((?x4465 (stack_s x_0 x_1 x_2 0 n)))
 (let (($x330 (= ?x4465 ?x8040)))
 (or $x330 $x7673)))))))
 ))
 (let ((?x63 (sc_t 0)))
 (let ((?x72 (sc_s 0)))
 (let (($x73 (= ?x72 ?x63)))
 (let (($x3884 (= $x3614 (or (exc_halt_t 2) (not (bvsle (_ bv0 6) (bvadd (_ bv60 6) (sc_t 2))))))))
 (let (($x2281 (forall ((w (_ BitVec 256)) )(let ((?x10235 (storage_t x_0 x_1 x_2 2 w)))
 (let ((?x11574 (storage_t x_0 x_1 x_2 3 w)))
 (= ?x11574 ?x10235))))
 ))
 (let (($x7269 (forall ((n (_ BitVec 6)) )(let ((?x10786 (stack_t x_0 x_1 x_2 2 n)))
 (let ((?x7074 (stack_t x_0 x_1 x_2 3 n)))
 (let (($x10525 (= ?x7074 ?x10786)))
 (or (bvsle (bvadd (_ bv60 6) (sc_t 2)) n) $x10525)))))
 ))
 (let ((?x6158 (sc_t 2)))
 (let (($x10269 (= ?x11304 ?x6158)))
 (let ((?x28 (used_gas_t x_0 x_1 x_2 3)))
 (let (($x11492 (= ?x28 (+ 3 (used_gas_t x_0 x_1 x_2 2)))))
 (let ((?x6252 (stack_t x_0 x_1 x_2 2 (bvadd (_ bv62 6) ?x6158))))
 (let (($x5663 (= (stack_t x_0 x_1 x_2 3 (bvadd (_ bv62 6) ?x11304)) ?x6252)))
 (let ((?x10779 (bvadd (_ bv61 6) ?x6158)))
 (let ((?x8148 (stack_t x_0 x_1 x_2 2 ?x10779)))
 (let ((?x8490 (stack_t x_0 x_1 x_2 3 (bvadd (_ bv61 6) ?x11304))))
 (let ((?x10639 (bvadd (_ bv63 6) ?x6158)))
 (let ((?x5277 (stack_t x_0 x_1 x_2 2 ?x10639)))
 (let ((?x3894 (bvadd (_ bv63 6) ?x11304)))
 (let ((?x11539 (stack_t x_0 x_1 x_2 3 ?x3894)))
 (let (($x3470 (exc_halt_t 2)))
 (let (($x11880 (= $x3470 (or (exc_halt_t 1) (not (bvsle (_ bv0 6) (bvadd (_ bv61 6) (sc_t 1))))))))
 (let (($x11073 (forall ((w (_ BitVec 256)) )(let ((?x6835 (storage_t x_0 x_1 x_2 1 w)))
 (let ((?x10235 (storage_t x_0 x_1 x_2 2 w)))
 (= ?x10235 ?x6835))))
 ))
 (let (($x4221 (forall ((n (_ BitVec 6)) )(let ((?x6257 (stack_t x_0 x_1 x_2 1 n)))
 (let ((?x10786 (stack_t x_0 x_1 x_2 2 n)))
 (or (= ?x10786 ?x6257) (bvsle (bvadd (_ bv61 6) (sc_t 1)) n)))))
 ))
 (let ((?x7154 (sc_t 1)))
 (let (($x7355 (= ?x6158 ?x7154)))
 (let ((?x4979 (used_gas_t x_0 x_1 x_2 2)))
 (let (($x5028 (= ?x4979 (+ 3 (used_gas_t x_0 x_1 x_2 1)))))
 (let ((?x549 (bvadd (_ bv61 6) ?x7154)))
 (let ((?x4526 (stack_t x_0 x_1 x_2 1 ?x549)))
 (let (($x6034 (= ?x5277 ?x4526)))
 (let (($x7311 (not (= ((_ extract 6 6) (bvadd (_ bv1 7) (concat (_ bv0 1) ?x63))) (_ bv0 1)))))
 (let (($x8377 (exc_halt_t 1)))
 (let (($x11429 (forall ((w (_ BitVec 256)) )(let ((?x1976 (storage_t x_0 x_1 x_2 0 w)))
 (let ((?x6835 (storage_t x_0 x_1 x_2 1 w)))
 (= ?x6835 ?x1976))))
 ))
 (let (($x8035 (forall ((n (_ BitVec 6)) )(let ((?x8040 (stack_t x_0 x_1 x_2 0 n)))
 (let ((?x6257 (stack_t x_0 x_1 x_2 1 n)))
 (let (($x1845 (= ?x6257 ?x8040)))
 (or $x1845 (bvsle (bvadd (_ bv61 6) (sc_t 0)) n))))))
 ))
 (let (($x3228 (= ?x7154 (bvadd (_ bv1 6) ?x63))))
 (let ((?x1090 (used_gas_t x_0 x_1 x_2 1)))
 (let (($x6133 (= ?x1090 (+ 3 ?x9715))))
 (let (($x4984 (= (stack_t x_0 x_1 x_2 1 (bvadd (_ bv63 6) ?x63)) (stack_t x_0 x_1 x_2 0 (bvadd (_ bv63 6) ?x63)))))
 (let ((?x1388 (bvadd (_ bv62 6) ?x63)))
 (let ((?x6558 (stack_t x_0 x_1 x_2 0 ?x1388)))
 (let (($x7134 (= (stack_t x_0 x_1 x_2 1 ?x1388) ?x6558)))
 (let ((?x7874 (bvadd (_ bv61 6) ?x63)))
 (let ((?x6075 (stack_t x_0 x_1 x_2 0 ?x7874)))
 (let (($x3337 (not (bvsle (_ bv0 6) (bvadd (_ bv62 6) (sc_s 3))))))
 (let (($x292 (exc_halt_s 3)))
 (let (($x6872 (or $x292 $x3337 (not (= ((_ extract 6 6) (bvadd (_ bv1 7) (concat (_ bv0 1) (sc_s 3)))) (_ bv0 1))))))
 (let (($x3914 (= $x7172 $x6872)))
 (let (($x6378 (forall ((w (_ BitVec 256)) )(let ((?x8054 (storage_s x_0 x_1 x_2 3 w)))
 (let ((?x3881 (storage_s x_0 x_1 x_2 4 w)))
 (= ?x3881 ?x8054))))
 ))
 (let (($x7970 (forall ((n (_ BitVec 6)) )(let ((?x6734 (stack_s x_0 x_1 x_2 3 n)))
 (let ((?x1159 (stack_s x_0 x_1 x_2 4 n)))
 (let ((?x275 (sc_s 3)))
 (let ((?x11384 (bvadd (_ bv62 6) ?x275)))
 (let (($x2042 (bvsle ?x11384 n)))
 (or $x2042 (= ?x1159 ?x6734))))))))
 ))
 (let (($x8397 (= ?x4305 (bvadd (_ bv1 6) (sc_s 3)))))
 (let ((?x2039 (used_gas_s x_0 x_1 x_2 4)))
 (let (($x599 (= ?x2039 (+ 3 (used_gas_s x_0 x_1 x_2 3)))))
 (let ((?x275 (sc_s 3)))
 (let ((?x1344 (bvadd (_ bv63 6) ?x275)))
 (let ((?x10424 (stack_s x_0 x_1 x_2 3 ?x1344)))
 (let (($x9447 (= (stack_s x_0 x_1 x_2 4 ?x1344) ?x10424)))
 (let ((?x11384 (bvadd (_ bv62 6) ?x275)))
 (let ((?x2962 (stack_s x_0 x_1 x_2 3 ?x11384)))
 (let (($x11922 (= (stack_s x_0 x_1 x_2 4 ?x11384) ?x2962)))
 (let ((?x11664 (bvadd (_ bv63 6) ?x4305)))
 (let ((?x3062 (stack_s x_0 x_1 x_2 4 ?x11664)))
 (let (($x9718 (= ?x3062 ?x2962)))
 (let (($x7648 (= $x292 (or (exc_halt_s 2) (not (bvsle (_ bv0 6) (bvadd (_ bv62 6) (sc_s 2))))))))
 (let (($x705 (forall ((w (_ BitVec 256)) )(let ((?x4839 (storage_s x_0 x_1 x_2 2 w)))
 (let ((?x8054 (storage_s x_0 x_1 x_2 3 w)))
 (= ?x8054 ?x4839))))
 ))
 (let (($x215 (forall ((n (_ BitVec 6)) )(let ((?x218 (sc_s 2)))
 (let ((?x6941 (bvadd (_ bv62 6) ?x218)))
 (let (($x11374 (bvsle ?x6941 n)))
 (let ((?x3599 (stack_s x_0 x_1 x_2 2 n)))
 (let ((?x6734 (stack_s x_0 x_1 x_2 3 n)))
 (let (($x7903 (= ?x6734 ?x3599)))
 (or $x7903 $x11374))))))))
 ))
 (let ((?x218 (sc_s 2)))
 (let (($x8219 (= ?x275 ?x218)))
 (let ((?x10820 (used_gas_s x_0 x_1 x_2 3)))
 (let (($x1014 (= ?x10820 (+ 3 (used_gas_s x_0 x_1 x_2 2)))))
 (let ((?x2158 (bvadd (_ bv63 6) ?x218)))
 (let ((?x5697 (stack_s x_0 x_1 x_2 2 ?x2158)))
 (let (($x3183 (= ?x2962 ?x5697)))
 (let ((?x6941 (bvadd (_ bv62 6) ?x218)))
 (let ((?x6305 (stack_s x_0 x_1 x_2 2 ?x6941)))
 (let (($x4517 (= ?x10424 ?x6305)))
 (let (($x247 (exc_halt_s 2)))
 (let (($x10211 (= $x247 (or (exc_halt_s 1) (not (bvsle (_ bv0 6) (bvadd (_ bv61 6) (sc_s 1))))))))
 (let (($x9964 (forall ((w (_ BitVec 256)) )(let ((?x7571 (storage_s x_0 x_1 x_2 1 w)))
 (let ((?x4839 (storage_s x_0 x_1 x_2 2 w)))
 (= ?x4839 ?x7571))))
 ))
 (let (($x885 (forall ((n (_ BitVec 6)) )(let ((?x7675 (stack_s x_0 x_1 x_2 1 n)))
 (let ((?x3599 (stack_s x_0 x_1 x_2 2 n)))
 (let (($x1424 (= ?x3599 ?x7675)))
 (or $x1424 (bvsle (bvadd (_ bv61 6) (sc_s 1)) n))))))
 ))
 (let ((?x154 (sc_s 1)))
 (let (($x3064 (= ?x218 ?x154)))
 (let ((?x9457 (used_gas_s x_0 x_1 x_2 2)))
 (let (($x449 (= ?x9457 (+ 3 (used_gas_s x_0 x_1 x_2 1)))))
 (let ((?x9694 (bvadd (_ bv62 6) ?x154)))
 (let ((?x10142 (stack_s x_0 x_1 x_2 1 ?x9694)))
 (let (($x5411 (= ?x6305 ?x10142)))
 (let ((?x174 (bvadd (_ bv63 6) ?x154)))
 (let ((?x1665 (stack_s x_0 x_1 x_2 1 ?x174)))
 (let ((?x6079 (stack_s x_0 x_1 x_2 2 (bvadd (_ bv61 6) ?x218))))
 (let (($x759 (forall ((w (_ BitVec 256)) )(let ((?x2672 (storage_s x_0 x_1 x_2 0 w)))
 (let ((?x7571 (storage_s x_0 x_1 x_2 1 w)))
 (= ?x7571 ?x2672))))
 ))
 (let (($x1886 (forall ((n (_ BitVec 6)) )(let ((?x4465 (stack_s x_0 x_1 x_2 0 n)))
 (let ((?x7675 (stack_s x_0 x_1 x_2 1 n)))
 (let (($x6355 (= ?x7675 ?x4465)))
 (or $x6355 (bvsle (bvadd (_ bv62 6) (sc_s 0)) n))))))
 ))
 (let (($x10588 (= ?x154 ?x72)))
 (let ((?x578 (used_gas_s x_0 x_1 x_2 1)))
 (let (($x9668 (= ?x578 (+ 3 ?x6693))))
 (let (($x4876 (forall ((w (_ BitVec 256)) )(let ((?x2672 (storage_s x_0 x_1 x_2 0 w)))
 (= ?x2672 (_ bv0 256))))
 ))
 (let (($x8681 (= ?x6693 0)))
 (let (($x7303 (not $x57)))
 (let (($x1028 (= (stack_s x_0 x_1 x_2 0 (_ bv2 6)) x_2)))
 (let (($x8063 (= (stack_s x_0 x_1 x_2 0 (_ bv1 6)) x_1)))
 (let (($x8624 (= (stack_s x_0 x_1 x_2 0 (_ bv0 6)) x_0)))
 (let (($x3537 (= ?x72 (_ bv3 6))))
 (and $x3537 $x8624 $x8063 $x1028 $x7303 $x8681 $x4876 (= ?x1665 (stack_s x_0 x_1 x_2 0 (bvadd (_ bv62 6) ?x72))) (= ?x10142 (stack_s x_0 x_1 x_2 0 (bvadd (_ bv63 6) ?x72))) $x9668 $x10588 $x1886 $x759 (= (exc_halt_s 1) (or $x57 (not (bvsle (_ bv0 6) (bvadd (_ bv62 6) ?x72))))) (= ?x5697 (stack_s x_0 x_1 x_2 1 (bvadd (_ bv61 6) ?x154))) (= ?x6079 ?x1665) $x5411 $x449 $x3064 $x885 $x9964 $x10211 $x4517 $x3183 $x1014 $x8219 $x215 $x705 $x7648 $x9718 $x11922 $x9447 $x599 $x8397 $x7970 $x6378 $x3914 (= (stack_t x_0 x_1 x_2 1 (bvadd (_ bv63 6) ?x7154)) ?x6075) (= (stack_t x_0 x_1 x_2 1 ?x7874) ?x6075) $x7134 $x4984 $x6133 $x3228 $x8035 $x11429 (= $x8377 (or $x56 $x7311 (not (bvsle (_ bv0 6) ?x7874)))) $x6034 (= ?x8148 (stack_t x_0 x_1 x_2 1 (bvadd (_ bv63 6) ?x7154))) (= ?x6252 (stack_t x_0 x_1 x_2 1 (bvadd (_ bv62 6) ?x7154))) $x5028 $x7355 $x4221 $x11073 $x11880 (= ?x11539 (stack_t x_0 x_1 x_2 2 (bvadd (_ bv60 6) ?x6158))) (= (stack_t x_0 x_1 x_2 3 (bvadd (_ bv60 6) ?x11304)) ?x5277) (= ?x8490 ?x8148) $x5663 $x11492 $x10269 $x7269 $x2281 $x3884 $x73 $x80 $x58 $x192 $x9266 (not (and $x9234 $x4952 $x10470 $x8855)))))))))))))))))))))))))))))))))))))))))))))))))))))))))))))))))))))))))))))))))))))))))))))))))))))))))))))))))))))))))
 )
(check-sat)
(get-proof)
